mixintcount/benchmarks/random_v2l/7_7_3548.smt2
(set-logic QF_LIA)
(set-info :ran/ran2.smt2)
(set-info :smt-lib-version 2.0)
(declare-fun x1 () Int)
(declare-fun x2 () Int)
(declare-fun x3 () Int)
(declare-fun x4 () Int)
(declare-fun x5 () Int)
(declare-fun x6 () Int)
(declare-fun x7 () Int)
(assert (<= (+ (* 1 x1) (* (- 7) x2) (* (- 9) x3) (* (- 6) x4) (* 3 x5) (* (- 7) x6) (* (- 5) x7) ) 1395))
(assert (<= (+ (* (- 7) x1) (* (- 10) x2) (* 5 x3) (* (- 8) x4) (* 0 x5) (* 8 x6) (* (- 9) x7) ) 989))
(assert (<= (+ (* (- 4) x1) (* 5 x2) (* (- 9) x3) (* 6 x4) (* 8 x5) (* 1 x6) (* 9 x7) ) (- 2)))
(assert (<= (+ (* 10 x1) (* 5 x2) (* 2 x3) (* (- 3) x4) (* (- 8) x5) (* 10 x6) (* (- 2) x7) ) 2049))
(assert (<= (+ (* (- 10) x1) (* (- 1) x2) (* 8 x3) (* 3 x4) (* 1 x5) (* (- 10) x6) (* 6 x7) ) (- 58)))
(assert (<= (+ (* 9 x1) (* 1 x2) (* 5 x3) (* (- 2) x4) (* (- 4) x5) (* 4 x6) (* 2 x7) ) (- 783)))
(assert (<= (+ (* (- 4) x1) (* 3 x2) (* (- 3) x3) (* (- 6) x4) (* (- 8) x5) (* (- 6) x6) (* 7 x7) ) 887))
(assert (<= (+ (* 7 x1) (* (- 4) x2) (* (- 4) x3) (* 9 x4) (* (- 7) x5) (* 2 x6) (* 0 x7) ) 3435))
(assert (<= (+ (* (- 9) x1) (* (- 5) x2) (* 5 x3) (* 0 x4) (* (- 5) x5) (* 0 x6) (* (- 9) x7) ) 1144))
(assert (<= (+ (* (- 10) x1) (* 4 x2) (* 0 x3) (* (- 6) x4) (* (- 5) x5) (* (- 9) x6) (* 4 x7) ) 601))
(assert (<= (+ (* 5 x1) (* 10 x2) (* 4 x3) (* 5 x4) (* (- 7) x5) (* (- 2) x6) (* 6 x7) ) 1505))
(assert (<= (+ (* 2 x1) (* (- 10) x2) (* 4 x3) (* 5 x4) (* 2 x5) (* (- 6) x6) (* 6 x7) ) 1841))
(assert (<= (+ (* (- 3) x1) (* 0 x2) (* (- 10) x3) (* 1 x4) (* (- 10) x5) (* (- 10) x6) (* 2 x7) ) 1172))
(assert (<= (+ (* 2 x1) (* 10 x2) (* (- 9) x3) (* 8 x4) (* (- 9) x5) (* 5 x6) (* (- 3) x7) ) (- 1177)))
(assert (<= (+ (* 1 x1) (* 0 x2) (* 0 x3) (* 0 x4) (* 0 x5) (* 0 x6) (* 0 x7) ) 3548))
(assert (<= (+ (* (- 1) x1) (* 0 x2) (* 0 x3) (* 0 x4) (* 0 x5) (* 0 x6) (* 0 x7) ) 3548))
(assert (<= (+ (* 0 x1) (* 1 x2) (* 0 x3) (* 0 x4) (* 0 x5) (* 0 x6) (* 0 x7) ) 3548))
(assert (<= (+ (* 0 x1) (* (- 1) x2) (* 0 x3) (* 0 x4) (* 0 x5) (* 0 x6) (* 0 x7) ) 3548))
(assert (<= (+ (* 0 x1) (* 0 x2) (* 1 x3) (* 0 x4) (* 0 x5) (* 0 x6) (* 0 x7) ) 3548))
(assert (<= (+ (* 0 x1) (* 0 x2) (* (- 1) x3) (* 0 x4) (* 0 x5) (* 0 x6) (* 0 x7) ) 3548))
(assert (<= (+ (* 0 x1) (* 0 x2) (* 0 x3) (* 1 x4) (* 0 x5) (* 0 x6) (* 0 x7) ) 3548))
(assert (<= (+ (* 0 x1) (* 0 x2) (* 0 x3) (* (- 1) x4) (* 0 x5) (* 0 x6) (* 0 x7) ) 3548))
(assert (<= (+ (* 0 x1) (* 0 x2) (* 0 x3) (* 0 x4) (* 1 x5) (* 0 x6) (* 0 x7) ) 3548))
(assert (<= (+ (* 0 x1) (* 0 x2) (* 0 x3) (* 0 x4) (* (- 1) x5) (* 0 x6) (* 0 x7) ) 3548))
(assert (<= (+ (* 0 x1) (* 0 x2) (* 0 x3) (* 0 x4) (* 0 x5) (* 1 x6) (* 0 x7) ) 3548))
(assert (<= (+ (* 0 x1) (* 0 x2) (* 0 x3) (* 0 x4) (* 0 x5) (* (- 1) x6) (* 0 x7) ) 3548))
(assert (<= (+ (* 0 x1) (* 0 x2) (* 0 x3) (* 0 x4) (* 0 x5) (* 0 x6) (* 1 x7) ) 3548))
(assert (<= (+ (* 0 x1) (* 0 x2) (* 0 x3) (* 0 x4) (* 0 x5) (* 0 x6) (* (- 1) x7) ) 3548))
