mixintcount/benchmarks/random_v2l/7_7_3548.in
28 9
#	x1	x2	x3	x4	x5	x6	x7;		0 = Real; 1 = Integer
	1	1	1	1	1	1	1
1	1	-7	-9	-6	3	-7	-5	1395
1	-7	-10	5	-8	0	8	-9	989
1	-4	5	-9	6	8	1	9	-2
1	10	5	2	-3	-8	10	-2	2049
1	-10	-1	8	3	1	-10	6	-58
1	9	1	5	-2	-4	4	2	-783
1	-4	3	-3	-6	-8	-6	7	887
1	7	-4	-4	9	-7	2	0	3435
1	-9	-5	5	0	-5	0	-9	1144
1	-10	4	0	-6	-5	-9	4	601
1	5	10	4	5	-7	-2	6	1505
1	2	-10	4	5	2	-6	6	1841
1	-3	0	-10	1	-10	-10	2	1172
1	2	10	-9	8	-9	5	-3	-1177
1	1	0	0	0	0	0	0	3548
1	-1	0	0	0	0	0	0	3548
1	0	1	0	0	0	0	0	3548
1	0	-1	0	0	0	0	0	3548
1	0	0	1	0	0	0	0	3548
1	0	0	-1	0	0	0	0	3548
1	0	0	0	1	0	0	0	3548
1	0	0	0	-1	0	0	0	3548
1	0	0	0	0	1	0	0	3548
1	0	0	0	0	-1	0	0	3548
1	0	0	0	0	0	1	0	3548
1	0	0	0	0	0	-1	0	3548
1	0	0	0	0	0	0	1	3548
1	0	0	0	0	0	0	-1	3548
